
Log started (V11.0.0) Sun Apr 13 13:49:06 2008

Tried aggregator 1 time.
Reduced MIP has 220 rows, 4001 columns, and 8020 nonzeros.
Presolve time =    0.03 sec.
Clique table members: 200.
MIP emphasis: balance optimality and feasibility.
MIP search method: dynamic search.
Parallel mode: none, using 1 thread.
Root relaxation solution time =    0.09 sec.

        Nodes                                         Cuts/
   Node  Left     Objective  IInf  Best Integer     Best Node    ItCnt     Gap

*     0+    0                        10260.0000       56.6786      503   99.45%
*     0+    0                           67.0000       56.6786      503   15.41%
      0     0       57.0000    42       67.0000     Fract: 10      557   14.93%
*     0+    0                           66.0000       57.0000      557   13.64%
      0     0       57.0000    44       66.0000     Covers: 1      570   13.64%
*     0+    0                           65.0000       57.0000      570   12.31%
      0     0       57.0000    46       65.0000     Covers: 1      586   12.31%
*     0+    0                           64.0000       57.0000      586   10.94%
*     0+    0                           62.0000       57.0000      586    8.06%
*     0+    0                           60.0000       57.0000      586    5.00%

Repeating presolve.
Tried aggregator 1 time.
MIP Presolve eliminated 0 rows and 1934 columns.
Reduced MIP has 220 rows, 2067 columns, and 4152 nonzeros.
Tried aggregator 1 time.
Represolve time =    0.09 sec.
Clique table members: 487.
MIP emphasis: balance optimality and feasibility.
MIP search method: dynamic search.
Parallel mode: none, using 1 thread.
Root relaxation solution time =    0.06 sec.

        Nodes                                         Cuts/
   Node  Left     Objective  IInf  Best Integer     Best Node    ItCnt     Gap

      0     0       57.0000    46       60.0000       57.0000      415    5.00%
      0     2       57.0000    46       60.0000       57.0000      415    5.00%
    100    86       58.0000    41       60.0000       58.0000     2588    3.33%
    200   173       58.0000    42       60.0000       58.0000     4796    3.33%
    300   259       59.0000    38       60.0000       58.0000     7750    3.33%
    400   345       59.0000    42       60.0000       58.0000    12208    3.33%
    500   428       58.0000    48       60.0000       58.0000    15724    3.33%
    600   433       58.0000    37       60.0000       58.0000    21950    3.33%
    700   421       58.0000    41       60.0000       58.0000    28114    3.33%
    800   417       59.0000    42       60.0000       58.0000    33708    3.33%
    900   420    infeasible             60.0000       58.0000    39515    3.33%
   1000   435       59.0000    74       60.0000       58.0000    45103    3.33%
Elapsed time =  16.03 sec. (tree size =  2.21 MB, solutions = 7)
   1100   444       59.0000    78       60.0000       58.0000    50830    3.33%
   1200   518       59.0000    43       60.0000       58.0000    56462    3.33%
   1300   597       59.0000   100       60.0000       58.0000    63780    3.33%
   1400   687       59.0000    63       60.0000       58.0000    69805    3.33%
*  1441+  127                           59.0000       58.0000    72118    1.69%
   1500   168       58.0000    78       59.0000       58.0000    80203    1.69%
   1600   230       58.0000    83       59.0000       58.0000    96385    1.69%
   1700   270    infeasible             59.0000       58.0000   121027    1.69%
   1800   302    infeasible             59.0000       58.0000   151650    1.69%
   1900   348    infeasible             59.0000       58.0000   178885    1.69%
   2000   350       58.0000   119       59.0000       58.0000   218050    1.69%
Elapsed time =  61.36 sec. (tree size =  3.30 MB, solutions = 8)
   2100   340       58.0000   132       59.0000       58.0000   261925    1.69%
   2200   348       58.0000   119       59.0000       58.0000   298809    1.69%
   2300   384    infeasible             59.0000       58.0000   327005    1.69%
   2400   390       58.0000    82       59.0000       58.0000   370144    1.69%
   2500   386       58.0000   165       59.0000       58.0000   408670    1.69%
   2600   402       58.0000   135       59.0000       58.0000   440961    1.69%
   2700   392    infeasible             59.0000       58.0000   485707    1.69%
   2800   444       58.0000   123       59.0000       58.0000   507618    1.69%
   2900   486    infeasible             59.0000       58.0000   530089    1.69%
   3000   492    infeasible             59.0000       58.0000   567262    1.69%
Elapsed time = 189.11 sec. (tree size =  6.29 MB, solutions = 8)
   3100   514       58.0000    76       59.0000       58.0000   598211    1.69%
   3200   532       58.0000   145       59.0000       58.0000   627212    1.69%
   3300   498    infeasible             59.0000       58.0000   682078    1.69%
   3400   532       58.0000    98       59.0000       58.0000   707654    1.69%
   3500   510       58.0000   133       59.0000       58.0000   750541    1.69%
   3600   518    infeasible             59.0000       58.0000   788089    1.69%
   3700   548    infeasible             59.0000       58.0000   818498    1.69%
   3800   550       58.0000   160       59.0000       58.0000   857686    1.69%
   3900   570    infeasible             59.0000       58.0000   889043    1.69%
   4000   560       58.0000   146       59.0000       58.0000   933895    1.69%
Elapsed time = 339.94 sec. (tree size =  8.19 MB, solutions = 8)
   4100   580       58.0000   108       59.0000       58.0000   963475    1.69%
   4200   582       58.0000   155       59.0000       58.0000   996334    1.69%
   4300   556    infeasible             59.0000       58.0000  1042910    1.69%
   4400   550    infeasible             59.0000       58.0000  1077530    1.69%
   4500   584       58.0000     4       59.0000       58.0000  1103704    1.69%
*  4501+    1                           58.0000       58.0000  1103705    0.00%

Cover cuts applied:  1027
Flow cuts applied:  1
Mixed integer rounding cuts applied:  50
Gomory fractional cuts applied:  17

Solution pool: 9 solutions saved.

MIP - Integer optimal solution:  Objective = 5.8000000000e+001
Solution time =  411.25 sec.  Iterations = 1103705  Nodes = 4501


Incumbent solution
Variable Name           Solution Value
Cmax                         58.000000
X_1_11                        1.000000
X_2_2                         1.000000
X_3_20                        1.000000
X_4_10                        1.000000
X_5_11                        1.000000
X_6_16                        1.000000
X_7_9                         1.000000
X_8_13                        1.000000
X_9_9                         1.000000
X_10_10                       1.000000
X_11_6                        1.000000
X_12_10                       1.000000
X_13_3                        1.000000
X_14_18                       1.000000
X_15_20                       1.000000
X_16_10                       1.000000
X_17_17                       1.000000
X_18_16                       1.000000
X_19_4                        1.000000
X_20_3                        1.000000
X_21_19                       1.000000
X_22_6                        1.000000
X_23_1                        1.000000
X_24_6                        1.000000
X_25_5                        1.000000
X_26_13                       1.000000
X_27_7                        1.000000
X_28_7                        1.000000
X_29_9                        1.000000
X_30_5                        1.000000
X_31_6                        1.000000
X_32_8                        1.000000
X_33_17                       1.000000
X_34_19                       1.000000
X_35_17                       1.000000
X_36_5                        1.000000
X_37_14                       1.000000
X_38_12                       1.000000
X_39_8                        1.000000
X_40_17                       1.000000
X_41_4                        1.000000
X_42_10                       1.000000
X_43_3                        1.000000
X_44_16                       1.000000
X_45_9                        1.000000
X_46_12                       1.000000
X_47_18                       1.000000
X_48_12                       1.000000
X_49_5                        1.000000
X_50_20                       1.000000
X_51_20                       1.000000
X_52_6                        1.000000
X_53_11                       1.000000
X_54_19                       1.000000
X_55_3                        1.000000
X_56_10                       1.000000
X_57_15                       1.000000
X_58_12                       1.000000
X_59_10                       1.000000
X_60_5                        1.000000
X_61_11                       1.000000
X_62_17                       1.000000
X_63_12                       1.000000
X_64_11                       1.000000
X_65_1                        1.000000
X_66_17                       1.000000
X_67_9                        1.000000
X_68_15                       1.000000
X_69_9                        1.000000
X_70_18                       1.000000
X_71_13                       1.000000
X_72_19                       1.000000
X_73_19                       1.000000
X_74_15                       1.000000
X_75_1                        1.000000
X_76_19                       1.000000
X_77_7                        1.000000
X_78_14                       1.000000
X_79_2                        1.000000
X_80_4                        1.000000
X_81_14                       1.000000
X_82_5                        1.000000
X_83_20                       1.000000
X_84_12                       1.000000
X_85_12                       1.000000
X_86_20                       1.000000
X_87_19                       1.000000
X_88_20                       1.000000
X_89_1                        1.000000
X_90_14                       1.000000
X_91_19                       1.000000
X_92_8                        1.000000
X_93_9                        1.000000
X_94_17                       1.000000
X_95_10                       1.000000
X_96_2                        1.000000
X_97_9                        1.000000
X_98_15                       1.000000
X_99_8                        1.000000
X_100_3                       1.000000
X_101_11                      1.000000
X_102_4                       1.000000
X_103_10                      1.000000
X_104_15                      1.000000
X_105_2                       1.000000
X_106_11                      1.000000
X_107_3                       1.000000
X_108_11                      1.000000
X_109_4                       1.000000
X_110_6                       1.000000
X_111_8                       1.000000
X_112_4                       1.000000
X_113_6                       1.000000
X_114_2                       1.000000
X_115_4                       1.000000
X_116_18                      1.000000
X_117_17                      1.000000
X_118_15                      1.000000
X_119_8                       1.000000
X_120_6                       1.000000
X_121_14                      1.000000
X_122_8                       1.000000
X_123_19                      1.000000
X_124_8                       1.000000
X_125_4                       1.000000
X_126_20                      1.000000
X_127_18                      1.000000
X_128_13                      1.000000
X_129_7                       1.000000
X_130_16                      1.000000
X_131_7                       1.000000
X_132_2                       1.000000
X_133_6                       1.000000
X_134_19                      1.000000
X_135_5                       1.000000
X_136_6                       1.000000
X_137_19                      1.000000
X_138_16                      1.000000
X_139_12                      1.000000
X_140_20                      1.000000
X_141_16                      1.000000
X_142_16                      1.000000
X_143_3                       1.000000
X_144_16                      1.000000
X_145_5                       1.000000
X_146_10                      1.000000
X_147_4                       1.000000
X_148_14                      1.000000
X_149_15                      1.000000
X_150_15                      1.000000
X_151_16                      1.000000
X_152_17                      1.000000
X_153_13                      1.000000
X_154_6                       1.000000
X_155_10                      1.000000
X_156_10                      1.000000
X_157_18                      1.000000
X_158_14                      1.000000
X_159_19                      1.000000
X_160_17                      1.000000
X_161_1                       1.000000
X_162_12                      1.000000
X_163_16                      1.000000
X_164_17                      1.000000
X_165_3                       1.000000
X_166_20                      1.000000
X_167_12                      1.000000
X_168_20                      1.000000
X_169_14                      1.000000
X_170_16                      1.000000
X_171_7                       1.000000
X_172_3                       1.000000
X_173_13                      1.000000
X_174_2                       1.000000
X_175_3                       1.000000
X_176_15                      1.000000
X_177_15                      1.000000
X_178_14                      1.000000
X_179_20                      1.000000
X_180_9                       1.000000
X_181_4                       1.000000
X_182_9                       1.000000
X_183_7                       1.000000
X_184_1                       1.000000
X_185_18                      1.000000
X_186_2                       1.000000
X_187_1                       1.000000
X_188_7                       1.000000
X_189_13                      1.000000
X_190_14                      1.000000
X_191_8                       1.000000
X_192_15                      1.000000
X_193_14                      1.000000
X_194_11                      1.000000
X_195_13                      1.000000
X_196_10                      1.000000
X_197_2                       1.000000
X_198_3                       1.000000
X_199_18                      1.000000
X_200_3                       1.000000
All other variables in the range 1-4001 are 0.
